50 1225
1 2 437
1 3 556
1 4 409
1 5 385
1 6 618
1 7 892
1 8 848
1 9 216
1 10 327
1 11 694
1 12 626
1 13 722
1 14 852
1 15 345
1 16 825
1 17 185
1 18 477
1 19 436
1 20 151
1 21 708
1 22 953
1 23 765
1 24 96
1 25 688
1 26 64
1 27 768
1 28 478
1 29 508
1 30 716
1 31 571
1 32 700
1 33 410
1 34 644
1 35 622
1 36 715
1 37 29
1 38 188
1 39 966
1 40 797
1 41 969
1 42 1040
1 43 989
1 44 406
1 45 619
1 46 855
1 47 513
1 48 512
1 49 375
1 50 402
2 3 120
2 4 364
2 5 658
2 6 440
2 7 739
2 8 431
2 9 548
2 10 468
2 11 624
2 12 715
2 13 304
2 14 521
2 15 144
2 16 714
2 17 452
2 18 40
2 19 178
2 20 444
2 21 353
2 22 718
2 23 625
2 24 346
2 25 728
2 26 455
2 27 624
2 28 643
2 29 624
2 30 421
2 31 152
2 32 744
2 33 487
2 34 239
2 35 644
2 36 360
2 37 422
2 38 493
2 39 586
2 40 607
2 41 664
2 42 884
2 43 644
2 44 511
2 45 209
2 46 537
2 47 698
2 48 314
2 49 651
2 50 531
3 4 442
3 5 755
3 6 448
3 7 729
3 8 321
3 9 657
3 10 557
3 11 648
3 12 774
3 13 197
3 14 453
3 15 242
3 16 718
3 17 560
3 18 79
3 19 227
3 20 555
3 21 288
3 22 679
3 23 626
3 24 466
3 25 774
3 26 573
3 27 624
3 28 722
3 29 695
3 30 380
3 31 91
3 32 791
3 33 562
3 34 152
3 35 691
3 36 294
3 37 542
3 38 603
3 39 492
3 40 592
3 41 600
3 42 866
3 43 564
3 44 589
3 45 140
3 46 474
3 47 778
3 48 338
3 49 750
3 50 612
4 5 778
4 6 778
4 7 1082
4 8 756
4 9 617
4 10 653
4 11 933
4 12 955
4 13 638
4 14 884
4 15 421
4 16 1042
4 17 552
4 18 384
4 19 511
4 20 525
4 21 716
4 22 1078
4 23 960
4 24 333
4 25 993
4 26 467
4 27 960
4 28 834
4 29 843
4 30 784
4 31 387
4 32 1008
4 33 713
4 34 591
4 35 913
4 36 722
4 37 379
4 38 576
4 39 934
4 40 955
4 41 1028
4 42 1231
4 43 1003
4 44 724
4 45 399
4 46 901
4 47 880
4 48 646
4 49 769
4 50 733
5 6 544
5 7 712
5 8 955
5 9 170
5 10 204
5 11 494
5 12 313
5 13 850
5 14 847
5 15 516
5 16 623
5 17 228
5 18 693
5 19 543
5 20 254
5 21 761
5 22 833
5 23 604
5 24 446
5 25 398
5 26 321
5 27 610
5 28 157
5 29 220
5 30 709
5 31 810
5 32 402
5 33 246
5 34 769
5 35 368
5 36 766
5 37 414
5 38 202
5 39 1000
5 40 671
5 41 915
5 42 837
5 43 977
5 44 216
5 45 867
5 46 836
5 47 157
5 48 516
5 49 10
5 50 188
6 7 304
6 8 475
6 9 557
6 10 365
6 11 204
6 12 395
6 13 413
6 14 306
6 15 357
6 16 273
6 17 483
6 18 445
6 19 268
6 20 506
6 21 267
6 22 335
6 23 184
6 24 580
6 25 361
6 26 586
6 27 183
6 28 427
6 29 370
6 30 178
6 31 539
6 32 377
6 33 298
6 34 355
6 35 289
6 36 269
6 37 626
6 38 518
6 39 465
6 40 183
6 41 376
6 42 453
6 43 432
6 44 328
6 45 588
6 46 293
6 47 475
6 48 131
6 49 545
6 50 355
7 8 645
7 9 784
7 10 591
7 11 218
7 12 438
7 13 636
7 14 389
7 15 661
7 16 93
7 17 732
7 18 738
7 19 571
7 20 761
7 21 475
7 22 172
7 23 128
7 24 869
7 25 356
7 26 850
7 27 126
7 28 559
7 29 494
7 30 362
7 31 821
7 32 363
7 33 506
7 34 605
7 35 348
7 36 473
7 37 905
7 38 759
7 39 535
7 40 137
7 41 332
7 42 150
7 43 439
7 44 525
7 45 864
7 46 359
7 47 586
7 48 435
7 49 717
7 50 545
8 9 901
8 10 751
8 11 667
8 12 869
8 13 127
8 14 262
8 15 504
8 16 677
8 17 805
8 18 395
8 19 429
8 20 811
8 21 208
8 22 526
8 23 591
8 24 766
8 25 835
8 26 852
8 27 586
8 28 874
8 29 827
8 30 307
8 31 371
8 32 851
8 33 720
8 34 204
8 35 764
8 36 205
8 37 839
8 38 849
8 39 200
8 40 520
8 41 387
8 42 746
8 43 306
8 44 751
8 45 374
8 46 292
8 47 928
8 48 443
8 49 953
8 50 779
9 10 195
9 11 569
9 12 443
9 13 784
9 14 840
9 15 416
9 16 703
9 17 97
9 18 586
9 19 472
9 20 105
9 21 725
9 22 879
9 23 663
9 24 284
9 25 518
9 26 152
9 27 668
9 28 285
9 29 330
9 30 699
9 31 698
9 32 527
9 33 278
9 34 702
9 35 467
9 36 731
9 37 245
9 38 54
9 39 978
9 40 715
9 41 932
9 42 923
9 43 976
9 44 260
9 45 752
9 46 835
9 47 309
9 48 490
9 49 159
9 50 243
10 11 379
10 12 306
10 13 645
10 14 658
10 15 324
10 16 513
10 17 147
10 18 500
10 19 340
10 20 179
10 21 559
10 22 683
10 23 468
10 24 343
10 25 362
10 26 273
10 27 473
10 28 183
10 29 190
10 30 517
10 31 619
10 32 374
10 33 86
10 34 564
10 35 295
10 36 565
10 37 348
10 38 167
10 39 804
10 40 519
10 41 741
10 42 732
10 43 791
10 44 79
10 45 676
10 46 650
10 47 235
10 48 316
10 49 201
10 50 80
11 12 242
11 13 616
11 14 456
11 15 515
11 16 134
11 17 524
11 18 634
11 19 446
11 20 555
11 21 464
11 22 350
11 23 118
11 24 683
11 25 178
11 26 646
11 27 124
11 28 343
11 29 278
11 30 359
11 31 737
11 32 192
11 33 293
11 34 560
11 35 138
11 36 465
11 37 709
11 38 547
11 39 620
11 40 200
11 41 467
11 42 353
11 43 555
11 44 309
11 45 788
11 46 433
11 47 375
11 48 312
11 49 499
11 50 327
12 13 795
12 14 686
12 15 579
12 16 345
12 17 441
12 18 738
12 19 548
12 20 475
12 21 660
12 22 589
12 23 359
12 24 650
12 25 88
12 26 566
12 27 366
12 28 160
12 29 117
12 30 571
12 31 854
12 32 90
12 33 242
12 34 726
12 35 108
12 36 663
12 37 649
12 38 444
12 39 850
12 40 443
12 41 709
12 42 543
12 43 794
12 44 231
12 45 910
12 46 666
12 47 161
12 48 448
12 49 321
12 50 226
13 14 292
13 15 380
13 16 650
13 17 687
13 18 269
13 19 312
13 20 691
13 21 160
13 22 547
13 23 559
13 24 639
13 25 772
13 26 728
13 27 555
13 28 782
13 29 740
13 30 274
13 31 259
13 32 788
13 33 623
13 34 82
13 35 696
13 36 162
13 37 712
13 38 731
13 39 297
13 40 502
13 41 436
13 42 756
13 43 381
13 44 654
13 45 275
13 46 319
13 47 837
13 48 351
13 49 846
13 50 681
14 15 522
14 16 435
14 17 755
14 18 500
14 19 421
14 20 771
14 21 168
14 22 265
14 23 359
14 24 790
14 25 634
14 26 836
14 27 352
14 28 733
14 29 675
14 30 141
14 31 536
14 32 648
14 33 601
14 34 302
14 35 577
14 36 161
14 37 852
14 38 795
14 39 164
14 40 277
14 41 147
14 42 484
14 43 137
14 44 631
14 45 562
14 46 30
14 47 781
14 48 351
14 49 848
14 50 659
15 16 621
15 17 319
15 18 177
15 19 102
15 20 316
15 21 367
15 22 672
15 23 538
15 24 271
15 25 599
15 26 347
15 27 538
15 28 499
15 29 483
15 30 396
15 31 295
15 32 615
15 33 346
15 34 300
15 35 516
15 36 374
15 37 339
15 38 362
15 39 623
15 40 538
15 41 652
15 42 811
15 43 657
15 44 368
15 45 352
15 46 530
15 47 554
15 48 227
15 49 510
15 50 388
16 17 658
16 18 718
16 19 539
16 20 688
16 21 490
16 22 255
16 23 92
16 24 809
16 25 262
16 26 779
16 27 96
16 28 469
16 29 404
16 30 377
16 31 810
16 32 270
16 33 427
16 34 609
16 35 257
16 36 489
16 37 839
16 38 681
16 39 590
16 40 158
16 41 403
16 42 219
16 43 505
16 44 443
16 45 857
16 46 406
16 47 494
16 48 401
16 49 629
16 50 461
17 18 490
17 19 376
17 20 33
17 21 633
17 22 813
17 23 607
17 24 222
17 25 504
17 26 126
17 27 611
17 28 295
17 29 323
17 30 614
17 31 603
17 32 515
17 33 233
17 34 605
17 35 441
17 36 639
17 37 209
17 38 43
17 39 889
17 40 651
17 41 854
17 42 876
17 43 891
17 44 224
17 45 658
17 46 752
17 47 334
17 48 403
17 49 219
17 50 218
18 19 192
18 20 483
18 21 332
18 22 708
18 23 628
18 24 386
18 25 746
18 26 496
18 27 626
18 28 672
18 29 650
18 30 409
18 31 119
18 32 763
18 33 514
18 34 209
18 35 662
18 36 339
18 37 462
18 38 532
18 39 556
18 40 604
18 41 645
18 42 881
18 43 620
18 44 539
18 45 176
18 46 518
18 47 727
18 48 322
18 49 687
18 50 561
19 20 382
19 21 271
19 22 572
19 23 452
19 24 369
19 25 554
19 26 429
19 27 452
19 28 496
19 29 467
19 30 294
19 31 305
19 32 570
19 33 335
19 34 230
19 35 470
19 36 278
19 37 433
19 38 420
19 39 530
19 40 444
19 41 550
19 42 720
19 43 557
19 44 363
19 45 361
19 46 428
19 47 552
19 48 138
19 49 539
19 50 388
20 21 644
20 22 837
20 23 635
20 24 192
20 25 538
20 26 93
20 27 639
20 28 329
20 29 357
20 30 630
20 31 594
20 32 549
20 33 265
20 34 609
20 35 474
20 36 650
20 37 175
20 38 54
20 39 901
20 40 677
20 41 873
20 42 906
20 43 908
20 44 257
20 45 647
20 46 769
20 47 366
20 48 420
20 49 244
20 50 251
21 22 397
21 23 400
21 24 638
21 25 628
21 26 699
21 27 395
21 28 670
21 29 621
21 30 114
21 31 374
21 32 644
21 33 520
21 34 140
21 35 557
21 36 6
21 37 704
21 38 675
21 39 258
21 40 341
21 41 313
21 42 599
21 43 293
21 44 551
21 45 407
21 46 186
21 47 723
21 48 244
21 49 759
21 50 579
22 23 233
22 24 913
22 25 512
22 26 920
22 27 226
22 28 689
22 29 624
22 30 299
22 31 769
22 32 522
22 33 604
22 34 537
22 35 488
22 36 393
22 37 960
22 38 845
22 39 384
22 40 163
22 41 167
22 42 222
22 43 277
22 44 629
22 45 804
22 46 234
22 47 724
22 48 451
22 49 837
22 50 653
23 24 741
23 25 290
23 26 724
23 27 7
23 28 457
23 29 392
23 30 287
23 31 718
23 32 301
23 33 385
23 34 516
23 35 256
23 36 399
23 37 777
23 38 635
23 39 519
23 40 86
23 41 352
23 42 278
23 43 445
23 44 406
23 45 765
23 46 332
23 47 491
23 48 314
23 49 608
23 50 428
24 25 702
24 26 140
24 27 743
24 28 514
24 29 533
24 30 659
24 31 477
24 32 715
24 33 417
24 34 563
24 35 629
24 36 645
24 37 76
24 38 243
24 39 894
24 40 763
24 41 914
24 42 1019
24 43 926
24 44 420
24 45 523
24 46 796
24 47 556
24 48 464
24 49 436
24 50 423
25 26 631
25 27 297
25 28 242
25 29 188
25 30 530
25 31 858
25 32 16
25 33 285
25 34 708
25 35 83
25 36 630
25 37 710
25 38 513
25 39 798
25 40 376
25 41 642
25 42 455
25 43 733
25 44 283
25 45 912
25 46 611
25 47 249
25 48 438
25 49 406
25 50 286
26 27 727
26 28 416
26 29 449
26 30 697
26 31 598
26 32 642
26 33 358
26 34 648
26 35 567
26 36 706
26 37 92
26 38 125
26 39 958
26 40 761
26 41 946
26 42 996
26 43 973
26 44 351
26 45 648
26 46 837
26 47 450
26 48 489
26 49 311
26 50 345
27 28 463
27 29 398
27 30 282
27 31 715
27 32 309
27 33 389
27 34 512
27 35 263
27 36 395
27 37 780
27 38 639
27 39 513
27 40 79
27 41 345
27 42 276
27 43 438
27 44 411
27 45 762
27 46 326
27 47 498
27 48 314
27 49 614
27 50 433
28 29 65
28 30 602
28 31 791
28 32 247
28 33 160
28 34 705
28 35 212
28 36 674
28 37 504
28 38 292
28 39 892
28 40 530
28 41 785
28 42 681
28 43 856
28 44 133
28 45 848
28 46 718
28 47 56
28 48 432
28 49 164
28 50 111
29 30 547
29 31 768
29 32 196
29 33 137
29 34 665
29 35 148
29 36 625
29 37 532
29 38 328
29 39 836
29 40 466
29 41 722
29 42 617
29 43 795
29 44 119
29 45 825
29 46 659
29 47 106
29 48 388
29 49 226
29 50 110
30 31 471
30 32 545
30 33 463
30 34 244
30 35 464
30 36 112
30 37 718
30 38 653
30 39 290
30 40 227
30 41 255
30 42 490
30 43 277
30 44 494
30 45 509
30 46 139
30 47 652
30 48 210
30 49 709
30 50 522
31 32 874
31 33 633
31 34 234
31 35 774
31 36 380
31 37 553
31 38 644
31 39 557
31 40 684
31 41 683
31 42 958
31 43 639
31 44 658
31 45 57
31 46 558
31 47 846
31 48 425
31 49 804
31 50 680
32 33 298
32 34 725
32 35 100
32 36 646
32 37 722
32 38 523
32 39 812
32 40 388
32 41 654
32 42 457
32 43 746
32 44 295
32 45 929
32 46 625
32 47 251
32 48 454
32 49 410
32 50 297
33 34 545
33 35 212
33 36 524
33 37 429
33 38 254
33 39 754
33 40 440
33 41 673
33 42 646
33 43 731
33 44 31
33 45 690
33 46 590
33 47 217
33 48 277
33 49 247
33 50 59
34 35 630
34 36 145
34 37 635
34 38 649
34 39 347
34 40 468
34 41 449
34 42 735
34 43 413
34 44 575
34 45 266
34 46 324
34 47 760
34 48 278
34 49 765
34 50 602
35 36 559
35 37 642
35 38 455
35 39 741
35 40 337
35 41 602
35 42 469
35 43 686
35 44 216
35 45 829
35 46 557
35 47 238
35 48 356
35 49 374
35 50 225
36 37 711
36 38 681
36 39 252
36 40 339
36 41 307
36 42 596
36 43 286
36 44 555
36 45 411
36 46 180
36 47 727
36 48 249
36 49 764
36 50 584
37 38 216
37 39 962
37 40 806
37 41 972
37 42 1053
37 43 989
37 44 427
37 45 599
37 46 856
37 47 540
37 48 516
37 49 404
37 50 424
38 39 930
38 40 682
38 41 891
38 42 900
38 43 931
38 44 240
38 45 699
38 46 791
38 47 324
38 48 444
38 49 192
38 50 229
39 40 436
39 41 221
39 42 606
39 43 118
39 44 785
39 45 567
39 46 187
39 47 941
39 48 490
39 49 999
39 50 813
40 41 266
40 42 277
40 43 359
40 44 465
40 45 727
40 46 250
40 47 568
40 48 311
40 49 674
40 50 489
41 42 386
41 43 110
41 44 701
41 45 709
41 46 127
41 47 827
41 48 457
41 49 917
41 50 728
42 43 495
42 44 663
42 45 998
42 46 454
42 47 700
42 48 584
42 49 843
42 50 680
43 44 760
43 45 657
43 46 140
43 47 901
43 48 488
43 49 978
43 50 788
44 45 715
44 46 620
44 47 189
44 48 308
44 49 217
44 50 28
45 46 586
45 47 903
45 48 478
45 49 860
45 50 737
46 47 765
46 48 349
46 49 837
46 50 648
47 48 486
47 49 166
47 50 166
48 49 515
48 50 336
49 50 189
